language Essence 1.3

letting costTC be
        function((1, 1) --> 14, (1, 2) --> 3, (1, 3) --> 5, (1, 4) --> 14, (1, 5) --> 2, (2, 1) --> 2, (2, 2) --> 11,
                 (2, 3) --> 9, (2, 4) --> 1, (2, 5) --> 2, (3, 1) --> 4, (3, 2) --> 9, (3, 3) --> 6, (3, 4) --> 7,
                 (3, 5) --> 7, (4, 1) --> 7, (4, 2) --> 7, (4, 3) --> 1, (4, 4) --> 1, (4, 5) --> 10, (5, 1) --> 17,
                 (5, 2) --> 9, (5, 3) --> 2, (5, 4) --> 1, (5, 5) --> 7, (6, 1) --> 13, (6, 2) --> 17, (6, 3) --> 8,
                 (6, 4) --> 12, (6, 5) --> 13, (7, 1) --> 19, (7, 2) --> 11, (7, 3) --> 4, (7, 4) --> 10, (7, 5) --> 3,
                 (8, 1) --> 6, (8, 2) --> 4, (8, 3) --> 10, (8, 4) --> 10, (8, 5) --> 5, (9, 1) --> 8, (9, 2) --> 9,
                 (9, 3) --> 9, (9, 4) --> 3, (9, 5) --> 9, (10, 1) --> 18, (10, 2) --> 12, (10, 3) --> 8, (10, 4) --> 9,
                 (10, 5) --> 9, (11, 1) --> 19, (11, 2) --> 8, (11, 3) --> 3, (11, 4) --> 5, (11, 5) --> 4,
                 (12, 1) --> 7, (12, 2) --> 6, (12, 3) --> 1, (12, 4) --> 13, (12, 5) --> 19, (13, 1) --> 16,
                 (13, 2) --> 12, (13, 3) --> 11, (13, 4) --> 17, (13, 5) --> 1, (14, 1) --> 6, (14, 2) --> 8,
                 (14, 3) --> 19, (14, 4) --> 18, (14, 5) --> 2, (15, 1) --> 15, (15, 2) --> 13, (15, 3) --> 10,
                 (15, 4) --> 2, (15, 5) --> 9, (16, 1) --> 17, (16, 2) --> 3, (16, 3) --> 19, (16, 4) --> 9,
                 (16, 5) --> 18, (17, 1) --> 12, (17, 2) --> 12, (17, 3) --> 15, (17, 4) --> 6, (17, 5) --> 3,
                 (18, 1) --> 18, (18, 2) --> 15, (18, 3) --> 2, (18, 4) --> 9, (18, 5) --> 19, (19, 1) --> 2,
                 (19, 2) --> 17, (19, 3) --> 15, (19, 4) --> 15, (19, 5) --> 5, (20, 1) --> 1, (20, 2) --> 14,
                 (20, 3) --> 10, (20, 4) --> 13, (20, 5) --> 4, (21, 1) --> 5, (21, 2) --> 8, (21, 3) --> 3,
                 (21, 4) --> 4, (21, 5) --> 7, (22, 1) --> 6, (22, 2) --> 6, (22, 3) --> 13, (22, 4) --> 16,
                 (22, 5) --> 16, (23, 1) --> 3, (23, 2) --> 16, (23, 3) --> 7, (23, 4) --> 10, (23, 5) --> 10,
                 (24, 1) --> 4, (24, 2) --> 17, (24, 3) --> 15, (24, 4) --> 14, (24, 5) --> 7, (25, 1) --> 13,
                 (25, 2) --> 5, (25, 3) --> 8, (25, 4) --> 14, (25, 5) --> 1, (26, 1) --> 9, (26, 2) --> 4,
                 (26, 3) --> 7, (26, 4) --> 15, (26, 5) --> 5, (27, 1) --> 14, (27, 2) --> 11, (27, 3) --> 13,
                 (27, 4) --> 17, (27, 5) --> 5, (28, 1) --> 16, (28, 2) --> 5, (28, 3) --> 18, (28, 4) --> 15,
                 (28, 5) --> 8, (29, 1) --> 11, (29, 2) --> 10, (29, 3) --> 6, (29, 4) --> 8, (29, 5) --> 7,
                 (30, 1) --> 7, (30, 2) --> 7, (30, 3) --> 6, (30, 4) --> 18, (30, 5) --> 4, (31, 1) --> 8,
                 (31, 2) --> 10, (31, 3) --> 18, (31, 4) --> 14, (31, 5) --> 2, (32, 1) --> 17, (32, 2) --> 19,
                 (32, 3) --> 16, (32, 4) --> 13, (32, 5) --> 4, (33, 1) --> 4, (33, 2) --> 6, (33, 3) --> 14,
                 (33, 4) --> 16, (33, 5) --> 3, (34, 1) --> 19, (34, 2) --> 2, (34, 3) --> 1, (34, 4) --> 3,
                 (34, 5) --> 8, (35, 1) --> 12, (35, 2) --> 1, (35, 3) --> 10, (35, 4) --> 18, (35, 5) --> 5,
                 (36, 1) --> 4, (36, 2) --> 8, (36, 3) --> 1, (36, 4) --> 13, (36, 5) --> 6, (37, 1) --> 5,
                 (37, 2) --> 16, (37, 3) --> 17, (37, 4) --> 12, (37, 5) --> 19, (38, 1) --> 14, (38, 2) --> 15,
                 (38, 3) --> 3, (38, 4) --> 17, (38, 5) --> 12, (39, 1) --> 13, (39, 2) --> 14, (39, 3) --> 10,
                 (39, 4) --> 17, (39, 5) --> 17, (40, 1) --> 4, (40, 2) --> 10, (40, 3) --> 13, (40, 4) --> 16,
                 (40, 5) --> 15, (41, 1) --> 6, (41, 2) --> 3, (41, 3) --> 17, (41, 4) --> 15, (41, 5) --> 13,
                 (42, 1) --> 14, (42, 2) --> 4, (42, 3) --> 13, (42, 4) --> 14, (42, 5) --> 11)
letting costWT be
        function((1, 1) --> 1, (1, 2) --> 2, (1, 3) --> 1, (1, 4) --> 2, (1, 5) --> 2, (1, 6) --> 1, (1, 7) --> 1,
                 (1, 8) --> 1, (1, 9) --> 1, (1, 10) --> 1, (1, 11) --> 1, (1, 12) --> 2, (1, 13) --> 2, (1, 14) --> 1,
                 (1, 15) --> 2, (1, 16) --> 1, (1, 17) --> 2, (1, 18) --> 1, (1, 19) --> 2, (1, 20) --> 2,
                 (1, 21) --> 1, (1, 22) --> 2, (1, 23) --> 2, (1, 24) --> 2, (1, 25) --> 2, (1, 26) --> 2,
                 (1, 27) --> 2, (1, 28) --> 1, (1, 29) --> 2, (1, 30) --> 2, (1, 31) --> 1, (1, 32) --> 1,
                 (1, 33) --> 1, (1, 34) --> 2, (1, 35) --> 2, (1, 36) --> 1, (1, 37) --> 1, (1, 38) --> 1,
                 (1, 39) --> 2, (1, 40) --> 2, (1, 41) --> 2, (1, 42) --> 2, (2, 1) --> 1, (2, 2) --> 2, (2, 3) --> 2,
                 (2, 4) --> 1, (2, 5) --> 1, (2, 6) --> 2, (2, 7) --> 2, (2, 8) --> 1, (2, 9) --> 2, (2, 10) --> 2,
                 (2, 11) --> 2, (2, 12) --> 1, (2, 13) --> 1, (2, 14) --> 1, (2, 15) --> 1, (2, 16) --> 2,
                 (2, 17) --> 1, (2, 18) --> 2, (2, 19) --> 1, (2, 20) --> 1, (2, 21) --> 1, (2, 22) --> 1,
                 (2, 23) --> 2, (2, 24) --> 2, (2, 25) --> 1, (2, 26) --> 1, (2, 27) --> 1, (2, 28) --> 1,
                 (2, 29) --> 1, (2, 30) --> 1, (2, 31) --> 1, (2, 32) --> 2, (2, 33) --> 2, (2, 34) --> 1,
                 (2, 35) --> 2, (2, 36) --> 2, (2, 37) --> 1, (2, 38) --> 2, (2, 39) --> 2, (2, 40) --> 2,
                 (2, 41) --> 1, (2, 42) --> 1, (3, 1) --> 2, (3, 2) --> 1, (3, 3) --> 2, (3, 4) --> 1, (3, 5) --> 2,
                 (3, 6) --> 2, (3, 7) --> 2, (3, 8) --> 1, (3, 9) --> 2, (3, 10) --> 2, (3, 11) --> 1, (3, 12) --> 2,
                 (3, 13) --> 1, (3, 14) --> 2, (3, 15) --> 1, (3, 16) --> 1, (3, 17) --> 2, (3, 18) --> 1,
                 (3, 19) --> 2, (3, 20) --> 2, (3, 21) --> 2, (3, 22) --> 1, (3, 23) --> 1, (3, 24) --> 1,
                 (3, 25) --> 2, (3, 26) --> 1, (3, 27) --> 1, (3, 28) --> 2, (3, 29) --> 2, (3, 30) --> 2,
                 (3, 31) --> 1, (3, 32) --> 2, (3, 33) --> 2, (3, 34) --> 1, (3, 35) --> 1, (3, 36) --> 1,
                 (3, 37) --> 2, (3, 38) --> 2, (3, 39) --> 2, (3, 40) --> 1, (3, 41) --> 1, (3, 42) --> 1, (4, 1) --> 2,
                 (4, 2) --> 2, (4, 3) --> 2, (4, 4) --> 1, (4, 5) --> 2, (4, 6) --> 2, (4, 7) --> 1, (4, 8) --> 1,
                 (4, 9) --> 2, (4, 10) --> 2, (4, 11) --> 1, (4, 12) --> 1, (4, 13) --> 1, (4, 14) --> 2, (4, 15) --> 1,
                 (4, 16) --> 2, (4, 17) --> 2, (4, 18) --> 2, (4, 19) --> 2, (4, 20) --> 2, (4, 21) --> 1,
                 (4, 22) --> 2, (4, 23) --> 1, (4, 24) --> 1, (4, 25) --> 2, (4, 26) --> 1, (4, 27) --> 1,
                 (4, 28) --> 2, (4, 29) --> 1, (4, 30) --> 1, (4, 31) --> 2, (4, 32) --> 1, (4, 33) --> 1,
                 (4, 34) --> 1, (4, 35) --> 1, (4, 36) --> 2, (4, 37) --> 2, (4, 38) --> 1, (4, 39) --> 1,
                 (4, 40) --> 1, (4, 41) --> 1, (4, 42) --> 2, (5, 1) --> 1, (5, 2) --> 1, (5, 3) --> 2, (5, 4) --> 1,
                 (5, 5) --> 1, (5, 6) --> 2, (5, 7) --> 2, (5, 8) --> 2, (5, 9) --> 2, (5, 10) --> 2, (5, 11) --> 1,
                 (5, 12) --> 1, (5, 13) --> 1, (5, 14) --> 2, (5, 15) --> 2, (5, 16) --> 1, (5, 17) --> 2,
                 (5, 18) --> 1, (5, 19) --> 1, (5, 20) --> 2, (5, 21) --> 1, (5, 22) --> 1, (5, 23) --> 2,
                 (5, 24) --> 1, (5, 25) --> 2, (5, 26) --> 2, (5, 27) --> 1, (5, 28) --> 2, (5, 29) --> 1,
                 (5, 30) --> 2, (5, 31) --> 2, (5, 32) --> 1, (5, 33) --> 1, (5, 34) --> 1, (5, 35) --> 2,
                 (5, 36) --> 2, (5, 37) --> 1, (5, 38) --> 2, (5, 39) --> 2, (5, 40) --> 1, (5, 41) --> 1,
                 (5, 42) --> 2, (6, 1) --> 1, (6, 2) --> 2, (6, 3) --> 1, (6, 4) --> 2, (6, 5) --> 1, (6, 6) --> 2,
                 (6, 7) --> 1, (6, 8) --> 2, (6, 9) --> 2, (6, 10) --> 1, (6, 11) --> 1, (6, 12) --> 1, (6, 13) --> 1,
                 (6, 14) --> 1, (6, 15) --> 1, (6, 16) --> 2, (6, 17) --> 2, (6, 18) --> 2, (6, 19) --> 2,
                 (6, 20) --> 2, (6, 21) --> 1, (6, 22) --> 2, (6, 23) --> 1, (6, 24) --> 2, (6, 25) --> 2,
                 (6, 26) --> 2, (6, 27) --> 1, (6, 28) --> 1, (6, 29) --> 2, (6, 30) --> 1, (6, 31) --> 2,
                 (6, 32) --> 2, (6, 33) --> 2, (6, 34) --> 2, (6, 35) --> 2, (6, 36) --> 1, (6, 37) --> 1,
                 (6, 38) --> 2, (6, 39) --> 1, (6, 40) --> 1, (6, 41) --> 1, (6, 42) --> 1, (7, 1) --> 1, (7, 2) --> 2,
                 (7, 3) --> 2, (7, 4) --> 1, (7, 5) --> 2, (7, 6) --> 2, (7, 7) --> 2, (7, 8) --> 1, (7, 9) --> 2,
                 (7, 10) --> 2, (7, 11) --> 1, (7, 12) --> 1, (7, 13) --> 1, (7, 14) --> 1, (7, 15) --> 1,
                 (7, 16) --> 2, (7, 17) --> 1, (7, 18) --> 2, (7, 19) --> 1, (7, 20) --> 1, (7, 21) --> 1,
                 (7, 22) --> 2, (7, 23) --> 1, (7, 24) --> 1, (7, 25) --> 1, (7, 26) --> 1, (7, 27) --> 2,
                 (7, 28) --> 2, (7, 29) --> 2, (7, 30) --> 2, (7, 31) --> 2, (7, 32) --> 1, (7, 33) --> 1,
                 (7, 34) --> 2, (7, 35) --> 1, (7, 36) --> 2, (7, 37) --> 1, (7, 38) --> 2, (7, 39) --> 1,
                 (7, 40) --> 1, (7, 41) --> 2, (7, 42) --> 2, (8, 1) --> 1, (8, 2) --> 1, (8, 3) --> 1, (8, 4) --> 1,
                 (8, 5) --> 2, (8, 6) --> 2, (8, 7) --> 1, (8, 8) --> 2, (8, 9) --> 1, (8, 10) --> 1, (8, 11) --> 2,
                 (8, 12) --> 2, (8, 13) --> 1, (8, 14) --> 2, (8, 15) --> 1, (8, 16) --> 1, (8, 17) --> 2,
                 (8, 18) --> 2, (8, 19) --> 1, (8, 20) --> 1, (8, 21) --> 2, (8, 22) --> 1, (8, 23) --> 2,
                 (8, 24) --> 2, (8, 25) --> 1, (8, 26) --> 1, (8, 27) --> 2, (8, 28) --> 1, (8, 29) --> 1,
                 (8, 30) --> 1, (8, 31) --> 2, (8, 32) --> 2, (8, 33) --> 2, (8, 34) --> 1, (8, 35) --> 1,
                 (8, 36) --> 1, (8, 37) --> 2, (8, 38) --> 1, (8, 39) --> 2, (8, 40) --> 2, (8, 41) --> 1,
                 (8, 42) --> 2, (9, 1) --> 2, (9, 2) --> 1, (9, 3) --> 2, (9, 4) --> 2, (9, 5) --> 2, (9, 6) --> 1,
                 (9, 7) --> 2, (9, 8) --> 2, (9, 9) --> 2, (9, 10) --> 1, (9, 11) --> 2, (9, 12) --> 1, (9, 13) --> 1,
                 (9, 14) --> 1, (9, 15) --> 1, (9, 16) --> 2, (9, 17) --> 2, (9, 18) --> 2, (9, 19) --> 2,
                 (9, 20) --> 2, (9, 21) --> 2, (9, 22) --> 1, (9, 23) --> 1, (9, 24) --> 2, (9, 25) --> 1,
                 (9, 26) --> 1, (9, 27) --> 2, (9, 28) --> 1, (9, 29) --> 2, (9, 30) --> 2, (9, 31) --> 2,
                 (9, 32) --> 1, (9, 33) --> 1, (9, 34) --> 2, (9, 35) --> 2, (9, 36) --> 2, (9, 37) --> 2,
                 (9, 38) --> 2, (9, 39) --> 1, (9, 40) --> 1, (9, 41) --> 2, (9, 42) --> 2, (10, 1) --> 2,
                 (10, 2) --> 2, (10, 3) --> 2, (10, 4) --> 1, (10, 5) --> 2, (10, 6) --> 1, (10, 7) --> 2,
                 (10, 8) --> 1, (10, 9) --> 2, (10, 10) --> 2, (10, 11) --> 2, (10, 12) --> 1, (10, 13) --> 2,
                 (10, 14) --> 2, (10, 15) --> 1, (10, 16) --> 1, (10, 17) --> 1, (10, 18) --> 2, (10, 19) --> 1,
                 (10, 20) --> 1, (10, 21) --> 2, (10, 22) --> 1, (10, 23) --> 1, (10, 24) --> 2, (10, 25) --> 2,
                 (10, 26) --> 2, (10, 27) --> 1, (10, 28) --> 1, (10, 29) --> 1, (10, 30) --> 2, (10, 31) --> 2,
                 (10, 32) --> 1, (10, 33) --> 2, (10, 34) --> 2, (10, 35) --> 2, (10, 36) --> 2, (10, 37) --> 1,
                 (10, 38) --> 1, (10, 39) --> 2, (10, 40) --> 2, (10, 41) --> 2, (10, 42) --> 1, (11, 1) --> 1,
                 (11, 2) --> 2, (11, 3) --> 2, (11, 4) --> 2, (11, 5) --> 2, (11, 6) --> 1, (11, 7) --> 1,
                 (11, 8) --> 1, (11, 9) --> 2, (11, 10) --> 1, (11, 11) --> 2, (11, 12) --> 2, (11, 13) --> 2,
                 (11, 14) --> 1, (11, 15) --> 2, (11, 16) --> 1, (11, 17) --> 2, (11, 18) --> 1, (11, 19) --> 1,
                 (11, 20) --> 1, (11, 21) --> 1, (11, 22) --> 1, (11, 23) --> 2, (11, 24) --> 1, (11, 25) --> 1,
                 (11, 26) --> 1, (11, 27) --> 1, (11, 28) --> 2, (11, 29) --> 1, (11, 30) --> 2, (11, 31) --> 2,
                 (11, 32) --> 1, (11, 33) --> 1, (11, 34) --> 2, (11, 35) --> 1, (11, 36) --> 2, (11, 37) --> 1,
                 (11, 38) --> 2, (11, 39) --> 1, (11, 40) --> 2, (11, 41) --> 2, (11, 42) --> 2, (12, 1) --> 2,
                 (12, 2) --> 2, (12, 3) --> 1, (12, 4) --> 1, (12, 5) --> 1, (12, 6) --> 2, (12, 7) --> 2,
                 (12, 8) --> 2, (12, 9) --> 1, (12, 10) --> 1, (12, 11) --> 1, (12, 12) --> 1, (12, 13) --> 2,
                 (12, 14) --> 1, (12, 15) --> 2, (12, 16) --> 2, (12, 17) --> 2, (12, 18) --> 2, (12, 19) --> 1,
                 (12, 20) --> 1, (12, 21) --> 1, (12, 22) --> 1, (12, 23) --> 1, (12, 24) --> 1, (12, 25) --> 1,
                 (12, 26) --> 2, (12, 27) --> 1, (12, 28) --> 2, (12, 29) --> 2, (12, 30) --> 1, (12, 31) --> 1,
                 (12, 32) --> 1, (12, 33) --> 2, (12, 34) --> 2, (12, 35) --> 2, (12, 36) --> 1, (12, 37) --> 1,
                 (12, 38) --> 2, (12, 39) --> 1, (12, 40) --> 2, (12, 41) --> 2, (12, 42) --> 1, (13, 1) --> 2,
                 (13, 2) --> 1, (13, 3) --> 2, (13, 4) --> 2, (13, 5) --> 2, (13, 6) --> 1, (13, 7) --> 1,
                 (13, 8) --> 2, (13, 9) --> 2, (13, 10) --> 2, (13, 11) --> 2, (13, 12) --> 1, (13, 13) --> 1,
                 (13, 14) --> 1, (13, 15) --> 1, (13, 16) --> 2, (13, 17) --> 2, (13, 18) --> 2, (13, 19) --> 2,
                 (13, 20) --> 1, (13, 21) --> 1, (13, 22) --> 2, (13, 23) --> 1, (13, 24) --> 1, (13, 25) --> 2,
                 (13, 26) --> 2, (13, 27) --> 2, (13, 28) --> 2, (13, 29) --> 2, (13, 30) --> 2, (13, 31) --> 2,
                 (13, 32) --> 1, (13, 33) --> 2, (13, 34) --> 1, (13, 35) --> 2, (13, 36) --> 2, (13, 37) --> 2,
                 (13, 38) --> 1, (13, 39) --> 2, (13, 40) --> 1, (13, 41) --> 1, (13, 42) --> 2, (14, 1) --> 1,
                 (14, 2) --> 2, (14, 3) --> 1, (14, 4) --> 2, (14, 5) --> 1, (14, 6) --> 1, (14, 7) --> 1,
                 (14, 8) --> 1, (14, 9) --> 1, (14, 10) --> 1, (14, 11) --> 2, (14, 12) --> 2, (14, 13) --> 1,
                 (14, 14) --> 2, (14, 15) --> 1, (14, 16) --> 1, (14, 17) --> 2, (14, 18) --> 1, (14, 19) --> 1,
                 (14, 20) --> 1, (14, 21) --> 2, (14, 22) --> 1, (14, 23) --> 2, (14, 24) --> 2, (14, 25) --> 1,
                 (14, 26) --> 2, (14, 27) --> 2, (14, 28) --> 2, (14, 29) --> 2, (14, 30) --> 1, (14, 31) --> 2,
                 (14, 32) --> 2, (14, 33) --> 1, (14, 34) --> 2, (14, 35) --> 1, (14, 36) --> 1, (14, 37) --> 1,
                 (14, 38) --> 1, (14, 39) --> 1, (14, 40) --> 1, (14, 41) --> 1, (14, 42) --> 2, (15, 1) --> 1,
                 (15, 2) --> 2, (15, 3) --> 1, (15, 4) --> 1, (15, 5) --> 2, (15, 6) --> 2, (15, 7) --> 2,
                 (15, 8) --> 1, (15, 9) --> 1, (15, 10) --> 2, (15, 11) --> 2, (15, 12) --> 1, (15, 13) --> 2,
                 (15, 14) --> 2, (15, 15) --> 1, (15, 16) --> 1, (15, 17) --> 1, (15, 18) --> 2, (15, 19) --> 1,
                 (15, 20) --> 1, (15, 21) --> 1, (15, 22) --> 1, (15, 23) --> 1, (15, 24) --> 2, (15, 25) --> 2,
                 (15, 26) --> 1, (15, 27) --> 1, (15, 28) --> 1, (15, 29) --> 2, (15, 30) --> 2, (15, 31) --> 2,
                 (15, 32) --> 1, (15, 33) --> 2, (15, 34) --> 1, (15, 35) --> 2, (15, 36) --> 1, (15, 37) --> 2,
                 (15, 38) --> 1, (15, 39) --> 2, (15, 40) --> 1, (15, 41) --> 2, (15, 42) --> 1, (16, 1) --> 2,
                 (16, 2) --> 1, (16, 3) --> 1, (16, 4) --> 1, (16, 5) --> 2, (16, 6) --> 2, (16, 7) --> 2,
                 (16, 8) --> 2, (16, 9) --> 1, (16, 10) --> 2, (16, 11) --> 2, (16, 12) --> 1, (16, 13) --> 2,
                 (16, 14) --> 2, (16, 15) --> 2, (16, 16) --> 2, (16, 17) --> 1, (16, 18) --> 2, (16, 19) --> 1,
                 (16, 20) --> 1, (16, 21) --> 1, (16, 22) --> 1, (16, 23) --> 2, (16, 24) --> 1, (16, 25) --> 1,
                 (16, 26) --> 2, (16, 27) --> 1, (16, 28) --> 2, (16, 29) --> 2, (16, 30) --> 1, (16, 31) --> 1,
                 (16, 32) --> 2, (16, 33) --> 2, (16, 34) --> 2, (16, 35) --> 2, (16, 36) --> 1, (16, 37) --> 2,
                 (16, 38) --> 2, (16, 39) --> 2, (16, 40) --> 1, (16, 41) --> 1, (16, 42) --> 1, (17, 1) --> 2,
                 (17, 2) --> 1, (17, 3) --> 2, (17, 4) --> 2, (17, 5) --> 1, (17, 6) --> 1, (17, 7) --> 1,
                 (17, 8) --> 2, (17, 9) --> 2, (17, 10) --> 1, (17, 11) --> 1, (17, 12) --> 1, (17, 13) --> 1,
                 (17, 14) --> 1, (17, 15) --> 2, (17, 16) --> 2, (17, 17) --> 2, (17, 18) --> 1, (17, 19) --> 1,
                 (17, 20) --> 2, (17, 21) --> 1, (17, 22) --> 1, (17, 23) --> 2, (17, 24) --> 2, (17, 25) --> 2,
                 (17, 26) --> 2, (17, 27) --> 2, (17, 28) --> 2, (17, 29) --> 2, (17, 30) --> 1, (17, 31) --> 2,
                 (17, 32) --> 2, (17, 33) --> 2, (17, 34) --> 1, (17, 35) --> 2, (17, 36) --> 1, (17, 37) --> 1,
                 (17, 38) --> 1, (17, 39) --> 1, (17, 40) --> 1, (17, 41) --> 1, (17, 42) --> 1, (18, 1) --> 2,
                 (18, 2) --> 2, (18, 3) --> 2, (18, 4) --> 1, (18, 5) --> 2, (18, 6) --> 2, (18, 7) --> 2,
                 (18, 8) --> 2, (18, 9) --> 2, (18, 10) --> 1, (18, 11) --> 1, (18, 12) --> 2, (18, 13) --> 1,
                 (18, 14) --> 2, (18, 15) --> 2, (18, 16) --> 1, (18, 17) --> 1, (18, 18) --> 1, (18, 19) --> 2,
                 (18, 20) --> 2, (18, 21) --> 1, (18, 22) --> 2, (18, 23) --> 1, (18, 24) --> 2, (18, 25) --> 2,
                 (18, 26) --> 2, (18, 27) --> 2, (18, 28) --> 2, (18, 29) --> 1, (18, 30) --> 2, (18, 31) --> 2,
                 (18, 32) --> 2, (18, 33) --> 1, (18, 34) --> 2, (18, 35) --> 1, (18, 36) --> 2, (18, 37) --> 1,
                 (18, 38) --> 1, (18, 39) --> 2, (18, 40) --> 2, (18, 41) --> 2, (18, 42) --> 1, (19, 1) --> 2,
                 (19, 2) --> 1, (19, 3) --> 1, (19, 4) --> 2, (19, 5) --> 2, (19, 6) --> 2, (19, 7) --> 2,
                 (19, 8) --> 2, (19, 9) --> 1, (19, 10) --> 2, (19, 11) --> 1, (19, 12) --> 1, (19, 13) --> 2,
                 (19, 14) --> 1, (19, 15) --> 2, (19, 16) --> 2, (19, 17) --> 2, (19, 18) --> 2, (19, 19) --> 1,
                 (19, 20) --> 1, (19, 21) --> 2, (19, 22) --> 2, (19, 23) --> 1, (19, 24) --> 1, (19, 25) --> 1,
                 (19, 26) --> 1, (19, 27) --> 2, (19, 28) --> 2, (19, 29) --> 2, (19, 30) --> 2, (19, 31) --> 2,
                 (19, 32) --> 2, (19, 33) --> 1, (19, 34) --> 1, (19, 35) --> 1, (19, 36) --> 1, (19, 37) --> 1,
                 (19, 38) --> 2, (19, 39) --> 2, (19, 40) --> 2, (19, 41) --> 2, (19, 42) --> 1, (20, 1) --> 1,
                 (20, 2) --> 1, (20, 3) --> 1, (20, 4) --> 2, (20, 5) --> 2, (20, 6) --> 2, (20, 7) --> 2,
                 (20, 8) --> 1, (20, 9) --> 2, (20, 10) --> 1, (20, 11) --> 1, (20, 12) --> 1, (20, 13) --> 2,
                 (20, 14) --> 2, (20, 15) --> 2, (20, 16) --> 1, (20, 17) --> 1, (20, 18) --> 1, (20, 19) --> 2,
                 (20, 20) --> 1, (20, 21) --> 1, (20, 22) --> 2, (20, 23) --> 1, (20, 24) --> 2, (20, 25) --> 1,
                 (20, 26) --> 1, (20, 27) --> 2, (20, 28) --> 2, (20, 29) --> 1, (20, 30) --> 1, (20, 31) --> 2,
                 (20, 32) --> 1, (20, 33) --> 1, (20, 34) --> 2, (20, 35) --> 1, (20, 36) --> 2, (20, 37) --> 2,
                 (20, 38) --> 2, (20, 39) --> 2, (20, 40) --> 1, (20, 41) --> 1, (20, 42) --> 1, (21, 1) --> 2,
                 (21, 2) --> 1, (21, 3) --> 1, (21, 4) --> 2, (21, 5) --> 2, (21, 6) --> 2, (21, 7) --> 1,
                 (21, 8) --> 1, (21, 9) --> 1, (21, 10) --> 1, (21, 11) --> 1, (21, 12) --> 1, (21, 13) --> 2,
                 (21, 14) --> 2, (21, 15) --> 1, (21, 16) --> 1, (21, 17) --> 1, (21, 18) --> 2, (21, 19) --> 1,
                 (21, 20) --> 2, (21, 21) --> 1, (21, 22) --> 1, (21, 23) --> 2, (21, 24) --> 2, (21, 25) --> 1,
                 (21, 26) --> 2, (21, 27) --> 1, (21, 28) --> 1, (21, 29) --> 1, (21, 30) --> 2, (21, 31) --> 1,
                 (21, 32) --> 2, (21, 33) --> 2, (21, 34) --> 2, (21, 35) --> 2, (21, 36) --> 1, (21, 37) --> 2,
                 (21, 38) --> 2, (21, 39) --> 1, (21, 40) --> 2, (21, 41) --> 2, (21, 42) --> 1)
letting demand be function(1 --> 15, 2 --> 13, 3 --> 13, 4 --> 10, 5 --> 14)
letting maxCost be 15
letting n_customer be 5
letting n_transshipment be 42
letting n_warehouses be 21
letting stock be
        function(1 --> 18, 2 --> 17, 3 --> 25, 4 --> 15, 5 --> 24, 6 --> 38, 7 --> 22, 8 --> 25, 9 --> 14, 10 --> 34,
                 11 --> 9, 12 --> 38, 13 --> 15, 14 --> 17, 15 --> 25, 16 --> 28, 17 --> 31, 18 --> 35, 19 --> 25,
                 20 --> 9, 21 --> 17)
